\ LP format - for model browsing. Use MPS format to capture full model detail.
Maximize
  5 n[0] + 3 n[1]
Subject To
 R0: 5 n[0] + 3 n[1] <= 180
 R1: n[0] + n[1] <= 150
 R2: 6 n[0] + 3 n[1] <= 100
 R3: 4 n[0] + 2 n[1] <= 30
Bounds
End
